(set-info :smt-lib-version 2.6)
(set-logic QF_ALIA)
(set-info :notes "Adapted for Array Sum evaluation.
Base file: qlock.induction.6.smt2")
(set-info :source |
Unbounded version of the queue lock algorithm.
|)
(set-info :category "industrial")
(declare-fun x_0 () (Array Int Int))
(declare-fun x_1 () Int)
(declare-fun x_2 () Int)
(declare-fun x_3 () (Array Int Int))
(declare-fun x_4 () (Array Int Int))
(declare-fun x_5 () (Array Int Int))
(declare-fun x_6 () (Array Int Int))
(declare-fun x_7 () (Array Int Int))
(declare-fun x_8 () (Array Int Int))
(declare-fun x_9 () Int)
(declare-fun x_10 () Int)
(declare-fun x_11 () (Array Int Int))
(declare-fun x_12 () Int)
(declare-fun x_13 () Bool)
(declare-fun x_14 () Bool)
(declare-fun x_15 () Int)
(declare-fun x_16 () Int)
(declare-fun x_17 () Int)
(declare-fun x_18 () Int)
(declare-fun x_19 () Int)
(declare-fun x_20 () Int)
(declare-fun x_21 () Int)
(declare-fun x_22 () Int)
(declare-fun x_23 () Int)
(declare-fun x_24 () Int)
(declare-fun x_25 () Int)
(declare-fun x_26 () Int)
(declare-fun x_27 () (Array Int Int))
(declare-fun x_28 () Int)
(declare-fun x_29 () Bool)
(declare-fun x_30 () Int)
(declare-fun x_31 () Int)
(declare-fun x_32 () Int)
(declare-fun x_33 () Int)
(declare-fun x_34 () Int)
(declare-fun x_35 () Int)
(declare-fun x_36 () Int)
(declare-fun x_37 () Int)
(declare-fun x_38 () Int)
(declare-fun x_39 () Int)
(declare-fun x_40 () (Array Int Int))
(declare-fun x_41 () Int)
(declare-fun x_42 () Bool)
(declare-fun x_43 () Int)
(declare-fun x_44 () Int)
(declare-fun x_45 () Int)
(declare-fun x_46 () Int)
(declare-fun x_47 () Int)
(declare-fun x_48 () Int)
(declare-fun x_49 () Int)
(declare-fun x_50 () Int)
(declare-fun x_51 () Int)
(declare-fun x_52 () Int)
(declare-fun x_53 () (Array Int Int))
(declare-fun x_54 () Int)
(declare-fun x_55 () Bool)
(declare-fun x_56 () Int)
(declare-fun x_57 () Int)
(declare-fun x_58 () Int)
(declare-fun x_59 () Int)
(declare-fun x_60 () Int)
(declare-fun x_61 () Int)
(declare-fun x_62 () Int)
(declare-fun x_63 () Int)
(declare-fun x_64 () Int)
(declare-fun x_65 () Int)
(declare-fun x_66 () (Array Int Int))
(declare-fun x_67 () Int)
(declare-fun x_68 () Bool)
(declare-fun x_69 () Int)
(declare-fun x_70 () Int)
(declare-fun x_71 () Int)
(declare-fun x_72 () Int)
(declare-fun x_73 () Int)
(declare-fun x_74 () Int)
(declare-fun x_75 () Int)
(declare-fun x_76 () Int)
(declare-fun x_77 () Int)
(declare-fun x_78 () Int)
(declare-fun x_79 () (Array Int Int))
(declare-fun x_80 () Int)
(declare-fun x_81 () Bool)
(declare-fun x_82 () Int)
(declare-fun x_83 () Int)
(declare-fun x_84 () Int)
(declare-fun x_85 () Int)
(declare-fun x_86 () Int)
(declare-fun x_87 () (Array Int Int))
(declare-fun x_88 () Int)
(declare-fun x_89 () Int)
(declare-fun x_90 () Int)
(declare-fun x_91 () Int)
(declare-fun x_92 () Int)
(declare-fun x_93 () Int)
(declare-fun x_94 () Int)
(declare-fun x_95 () Int)
(declare-fun x_96 () Int)
(declare-fun x_97 () Int)
(declare-fun x_98 () Int)
(declare-fun x_99 () Int)
(declare-fun x_100 () Int)
(declare-fun x_101 () Int)
(declare-fun x_102 () Int)
(declare-fun x_103 () Int)
(declare-fun x_104 () Int)
(declare-fun x_105 () Int)
(declare-fun x_106 () Int)
(declare-fun x_107 () Int)
(declare-fun x_108 () Int)
(declare-fun x_109 () Int)
(declare-fun x_110 () Int)
(declare-fun x_111 () Int)
(declare-fun x_112 () Int)
(declare-fun x_113 () Int)
(declare-fun x_114 () Int)
(declare-fun x_115 () Int)
(declare-fun x_116 () Int)
(declare-fun x_117 () Int)
(declare-fun x_118 () Int)
(declare-fun x_119 () Int)
(declare-fun x_120 () Int)
(declare-fun x_121 () Int)
(declare-fun x_122 () Int)
(declare-fun x_123 () Int)
(declare-fun x_124 () Int)
(declare-fun x_125 () Int)
(declare-fun x_126 () Int)
(declare-fun x_127 () Int)
(declare-fun x_128 () Int)
(declare-fun x_129 () Int)
(assert (let ((?v_28 (= x_11 x_8)) (?v_25 (= x_12 x_9)) (?v_26 (= x_13 x_14)) (?v_29 (= x_15 x_16)) (?v_27 (not (<= x_16 x_9))) (?v_23 (= x_27 x_11)) (?v_20 (= x_28 x_12)) (?v_21 (= x_29 x_13)) (?v_24 (= x_30 x_15)) (?v_22 (not (<= x_15 x_12))) (?v_18 (= x_40 x_27)) (?v_15 (= x_41 x_28)) (?v_16 (= x_42 x_29)) (?v_19 (= x_43 x_30)) (?v_17 (not (<= x_30 x_28))) (?v_13 (= x_53 x_40)) (?v_10 (= x_54 x_41)) (?v_11 (= x_55 x_42)) (?v_14 (= x_56 x_43)) (?v_12 (not (<= x_43 x_41))) (?v_8 (= x_66 x_53)) (?v_5 (= x_67 x_54)) (?v_6 (= x_68 x_55)) (?v_9 (= x_69 x_56)) (?v_7 (not (<= x_56 x_54))) (?v_3 (= x_79 x_66)) (?v_0 (= x_80 x_67)) (?v_1 (= x_81 x_68)) (?v_4 (= x_82 x_69)) (?v_2 (not (<= x_69 x_67)))) (and (and (and (and (and (and (and (and (and (and (and (and (and (and (and (and (and (and (and (and (and (and (and (and (and (and (and (and (and (and (and (and (and (and (and (and (and (and (and (and (and (and (and (and (and (and (and (and (and (and (and (and (and (and (and (and (and (and (and (and (and (and (and (and (not (= x_2 x_1)) (= x_92 (select x_7 x_1))) (= x_93 (select x_7 x_2))) (or (not (= x_92 3)) (not (= x_93 3)))) (= x_94 (select x_6 x_1))) (= x_95 (select x_6 x_2))) (or (not (= x_94 3)) (not (= x_95 3)))) (= x_96 (select x_5 x_1))) (= x_97 (select x_5 x_2))) (or (not (= x_96 3)) (not (= x_97 3)))) (= x_98 (select x_4 x_1))) (= x_99 (select x_4 x_2))) (or (not (= x_98 3)) (not (= x_99 3)))) (= x_100 (select x_3 x_1))) (= x_101 (select x_3 x_2))) (or (not (= x_100 3)) (not (= x_101 3)))) (= x_102 (select x_0 x_1))) (= x_103 (select x_0 x_2))) (or (not (= x_102 3)) (not (= x_103 3)))) (= x_104 (select x_8 x_9))) (= x_10 x_104)) (= x_105 (select x_11 x_12))) (= x_26 x_105)) (= x_106 (select x_27 x_28))) (= x_39 x_106)) (= x_107 (select x_40 x_41))) (= x_52 x_107)) (= x_108 (select x_53 x_54))) (= x_65 x_108)) (= x_109 (select x_66 x_67))) (= x_78 x_109)) (= x_83 (+ x_70 1))) (= x_110 (select x_7 x_85))) (= x_111 (select x_7 x_88))) (= x_112 (select x_7 x_90))) (or (or (or (and (and (and (and (and (and (and (= x_84 0) (= x_82 (+ x_69 1))) ?v_0) ?v_1) (= x_86 x_85)) (= x_110 1)) (= x_87 (store x_7 x_85 2))) (= x_79 (store x_66 x_69 x_85))) (and (and (and (and (and (and (and (and (and (= x_84 1) ?v_2) ?v_0) ?v_1) ?v_3) ?v_4) (= x_89 x_88)) (= x_111 2)) (= x_78 x_88)) (= x_87 (store x_7 x_88 3)))) (and (and (and (and (and (and (and (and (and (= x_84 2) ?v_2) (= x_80 (+ x_67 1))) ?v_1) ?v_3) ?v_4) (= x_91 x_90)) (= x_112 3)) (or (not (<= x_70 12)) (= x_78 x_90))) (= x_87 (store x_7 x_90 1)))) (and (and (and (and (and (= x_84 3) ?v_3) ?v_0) ?v_1) (= x_87 x_7)) ?v_4))) (= x_70 (+ x_57 1))) (= x_113 (select x_6 x_72))) (= x_114 (select x_6 x_74))) (= x_115 (select x_6 x_76))) (or (or (or (and (and (and (and (and (and (and (= x_71 0) (= x_69 (+ x_56 1))) ?v_5) ?v_6) (= x_73 x_72)) (= x_113 1)) (= x_7 (store x_6 x_72 2))) (= x_66 (store x_53 x_56 x_72))) (and (and (and (and (and (and (and (and (and (= x_71 1) ?v_7) ?v_5) ?v_6) ?v_8) ?v_9) (= x_75 x_74)) (= x_114 2)) (= x_65 x_74)) (= x_7 (store x_6 x_74 3)))) (and (and (and (and (and (and (and (and (and (= x_71 2) ?v_7) (= x_67 (+ x_54 1))) ?v_6) ?v_8) ?v_9) (= x_77 x_76)) (= x_115 3)) (or (not (<= x_57 12)) (= x_65 x_76))) (= x_7 (store x_6 x_76 1)))) (and (and (and (and (and (= x_71 3) ?v_8) ?v_5) ?v_6) (= x_7 x_6)) ?v_9))) (= x_57 (+ x_44 1))) (= x_116 (select x_5 x_59))) (= x_117 (select x_5 x_61))) (= x_118 (select x_5 x_63))) (or (or (or (and (and (and (and (and (and (and (= x_58 0) (= x_56 (+ x_43 1))) ?v_10) ?v_11) (= x_60 x_59)) (= x_116 1)) (= x_6 (store x_5 x_59 2))) (= x_53 (store x_40 x_43 x_59))) (and (and (and (and (and (and (and (and (and (= x_58 1) ?v_12) ?v_10) ?v_11) ?v_13) ?v_14) (= x_62 x_61)) (= x_117 2)) (= x_52 x_61)) (= x_6 (store x_5 x_61 3)))) (and (and (and (and (and (and (and (and (and (= x_58 2) ?v_12) (= x_54 (+ x_41 1))) ?v_11) ?v_13) ?v_14) (= x_64 x_63)) (= x_118 3)) (or (not (<= x_44 12)) (= x_52 x_63))) (= x_6 (store x_5 x_63 1)))) (and (and (and (and (and (= x_58 3) ?v_13) ?v_10) ?v_11) (= x_6 x_5)) ?v_14))) (= x_44 (+ x_31 1))) (= x_119 (select x_4 x_46))) (= x_120 (select x_4 x_48))) (= x_121 (select x_4 x_50))) (or (or (or (and (and (and (and (and (and (and (= x_45 0) (= x_43 (+ x_30 1))) ?v_15) ?v_16) (= x_47 x_46)) (= x_119 1)) (= x_5 (store x_4 x_46 2))) (= x_40 (store x_27 x_30 x_46))) (and (and (and (and (and (and (and (and (and (= x_45 1) ?v_17) ?v_15) ?v_16) ?v_18) ?v_19) (= x_49 x_48)) (= x_120 2)) (= x_39 x_48)) (= x_5 (store x_4 x_48 3)))) (and (and (and (and (and (and (and (and (and (= x_45 2) ?v_17) (= x_41 (+ x_28 1))) ?v_16) ?v_18) ?v_19) (= x_51 x_50)) (= x_121 3)) (or (not (<= x_31 12)) (= x_39 x_50))) (= x_5 (store x_4 x_50 1)))) (and (and (and (and (and (= x_45 3) ?v_18) ?v_15) ?v_16) (= x_5 x_4)) ?v_19))) (= x_31 (+ x_17 1))) (= x_122 (select x_3 x_33))) (= x_123 (select x_3 x_35))) (= x_124 (select x_3 x_37))) (or (or (or (and (and (and (and (and (and (and (= x_32 0) (= x_30 (+ x_15 1))) ?v_20) ?v_21) (= x_34 x_33)) (= x_122 1)) (= x_4 (store x_3 x_33 2))) (= x_27 (store x_11 x_15 x_33))) (and (and (and (and (and (and (and (and (and (= x_32 1) ?v_22) ?v_20) ?v_21) ?v_23) ?v_24) (= x_36 x_35)) (= x_123 2)) (= x_26 x_35)) (= x_4 (store x_3 x_35 3)))) (and (and (and (and (and (and (and (and (and (= x_32 2) ?v_22) (= x_28 (+ x_12 1))) ?v_21) ?v_23) ?v_24) (= x_38 x_37)) (= x_124 3)) (or (not (<= x_17 12)) (= x_26 x_37))) (= x_4 (store x_3 x_37 1)))) (and (and (and (and (and (= x_32 3) ?v_23) ?v_20) ?v_21) (= x_4 x_3)) ?v_24))) (= x_17 (+ x_18 1))) (= x_125 (select x_0 x_20))) (= x_126 (select x_0 x_22))) (= x_127 (select x_0 x_24))) (or (or (or (and (and (and (and (and (and (and (= x_19 0) (= x_15 (+ x_16 1))) ?v_25) ?v_26) (= x_21 x_20)) (= x_125 1)) (= x_3 (store x_0 x_20 2))) (= x_11 (store x_8 x_16 x_20))) (and (and (and (and (and (and (and (and (and (= x_19 1) ?v_27) ?v_25) ?v_26) ?v_28) ?v_29) (= x_23 x_22)) (= x_126 2)) (= x_10 x_22)) (= x_3 (store x_0 x_22 3)))) (and (and (and (and (and (and (and (and (and (= x_19 2) ?v_27) (= x_12 (+ x_9 1))) ?v_26) ?v_28) ?v_29) (= x_25 x_24)) (= x_127 3)) (or (not (<= x_18 12)) (= x_10 x_24))) (= x_3 (store x_0 x_24 1)))) (and (and (and (and (and (= x_19 3) ?v_28) ?v_25) ?v_26) (= x_3 x_0)) ?v_29))) (= x_128 (select x_87 x_1))) (= x_128 3)) (= x_129 (select x_87 x_2))) (= x_129 3))))
; --- Injected Array Sum Constraint ---
(assert (sum x_40 (+ x_77 (+ x_2 x_1))))
(assert (sum x_87 (+ x_89 (+ x_50 x_45))))
(assert (sum x_66 (+ x_18 (+ x_125 x_119))))
(assert (sum x_4 (+ x_31 (+ x_35 x_71))))
(assert (sum x_4 (+ x_46 (+ x_35 x_95))))
(assert (sum x_0 (+ x_104 (+ x_119 x_109))))
(assert (sum x_11 (+ x_119 (+ x_36 x_113))))
(assert (sum x_5 (+ x_28 (+ x_102 x_85))))
(assert (sum x_7 (+ x_71 (+ x_48 x_100))))
(assert (sum x_11 (+ x_78 (+ x_56 x_120))))
(check-sat)
(exit)